c Created with the Wolfram Language : www.wolfram.com
c 
p edge 80 293
e 3 7
e 2 9
e 4 10
e 2 12
e 10 12
e 11 13
e 5 14
e 12 15
e 3 16
e 9 16
e 5 17
e 11 17
e 1 18
e 2 19
e 1 20
e 3 20
e 8 20
e 10 20
e 15 20
e 2 21
e 11 21
e 15 21
e 18 21
e 16 22
e 2 23
e 10 23
e 16 23
e 6 24
e 19 24
e 15 25
e 22 25
e 9 26
e 4 27
e 11 27
e 13 27
e 25 27
e 2 28
e 6 28
e 27 28
e 7 30
e 26 30
e 7 31
e 8 32
e 12 32
e 18 32
e 28 32
e 30 32
e 1 33
e 6 33
e 9 33
e 10 33
e 12 33
e 5 34
e 6 34
e 21 34
e 27 34
e 2 35
e 27 35
e 33 35
e 9 36
e 15 36
e 17 36
e 18 36
e 24 36
e 32 36
e 1 38
e 3 38
e 34 38
e 2 39
e 21 39
e 29 39
e 15 40
e 19 40
e 23 40
e 30 40
e 33 40
e 2 41
e 3 41
e 18 41
e 23 41
e 25 41
e 1 42
e 34 42
e 41 42
e 6 43
e 12 43
e 14 43
e 17 43
e 8 44
e 38 44
e 14 45
e 23 45
e 33 45
e 14 46
e 23 46
e 35 46
e 38 46
e 11 47
e 40 47
e 10 48
e 15 48
e 25 48
e 26 48
e 14 49
e 20 49
e 24 49
e 27 49
e 38 49
e 45 49
e 38 50
e 42 50
e 10 51
e 11 51
e 13 51
e 26 51
e 36 51
e 46 51
e 3 52
e 5 52
e 17 52
e 19 52
e 24 52
e 29 52
e 42 52
e 49 52
e 10 53
e 24 53
e 36 53
e 51 53
e 5 54
e 35 54
e 41 54
e 7 55
e 19 55
e 21 55
e 31 55
e 42 55
e 10 56
e 17 56
e 20 56
e 26 56
e 28 56
e 44 56
e 7 57
e 34 57
e 49 57
e 54 57
e 4 58
e 29 58
e 32 58
e 46 58
e 49 58
e 5 59
e 12 59
e 36 59
e 40 59
e 46 59
e 47 59
e 54 59
e 13 60
e 18 60
e 24 60
e 31 60
e 34 60
e 30 61
e 50 61
e 18 62
e 21 62
e 29 62
e 31 62
e 59 62
e 61 62
e 4 63
e 9 63
e 19 63
e 30 63
e 52 63
e 55 63
e 2 64
e 10 64
e 17 64
e 43 64
e 10 65
e 16 65
e 43 65
e 50 65
e 14 66
e 20 66
e 28 66
e 35 66
e 37 66
e 40 66
e 51 66
e 5 67
e 20 67
e 23 67
e 25 67
e 38 67
e 58 67
e 5 68
e 18 68
e 38 68
e 62 68
e 67 68
e 1 69
e 13 69
e 15 69
e 18 69
e 20 69
e 22 69
e 23 69
e 29 69
e 33 69
e 40 69
e 41 69
e 64 69
e 67 69
e 1 70
e 8 70
e 39 71
e 52 71
e 61 71
e 3 72
e 4 72
e 16 72
e 18 72
e 54 72
e 61 72
e 63 72
e 68 72
e 71 72
e 5 73
e 36 73
e 39 73
e 67 73
e 3 74
e 8 74
e 17 74
e 24 74
e 29 74
e 37 74
e 41 74
e 7 75
e 10 75
e 16 75
e 26 75
e 31 75
e 32 75
e 38 75
e 52 75
e 54 75
e 2 76
e 19 76
e 20 76
e 28 76
e 34 76
e 49 76
e 50 76
e 55 76
e 58 76
e 67 76
e 68 76
e 74 76
e 3 77
e 6 77
e 24 77
e 41 77
e 47 77
e 51 77
e 70 77
e 74 77
e 27 78
e 41 78
e 63 78
e 5 79
e 6 79
e 10 79
e 29 79
e 51 79
e 69 79
e 73 79
e 77 79
e 78 79
e 12 80
e 14 80
e 15 80
e 38 80
e 44 80
e 50 80
e 54 80
e 59 80
e 60 80
e 78 80
